\ Model Rmain
\ LP format - for model browsing. Use MPS format to capture full model detail.
Minimize
  x[0] + x[1] + x[2] + x[3] + x[4] + x[5] + x[6] + x[7]
Subject To
 row0: 1.326984126984127 x[0] + 0.4071428571428571 x[1] <= 15
 row1: 1.326984126984127 x[2] + 0.4071428571428571 x[3] <= 20
 row2: 1.326984126984127 x[4] + 0.4071428571428571 x[5] <= 9
 row3: 1.326984126984127 x[6] + 0.4071428571428571 x[7] <= 16
 equal0: = -0
 equal1: 0.2527588813303099 x[2] + 0.0775510204081633 x[3]
   = 3.809523809523809
 equal2: = -0
 equal3: 0.3791383219954649 x[6] + 0.1163265306122449 x[7]
   = 4.571428571428572
Bounds
 x[0] >= -17
 x[1] >= 18
 x[2] >= 18
 x[3] >= -12
 x[4] >= -15
 x[5] >= -5
 x[6] >= 9
 x[7] >= 8
End
